16	9	17	1	17	6	11	8	14	19	19	13	17	15	4	11	4	17	6	12	10	9	6	16	19	9	1	6	6	20	19	5	13	10	9	6	19	1	14	20	16	4	2	9	15	11	5	13	8	10
9	19	11	2	18	11	19	9	17	3	15	5	1	4	12	11	7	18	9	10	14	14	16	14	16	14	10	19	8	10	14	13	11	6	19	17	18	14	11	7	15	18	6	12	4	15	9	1	8	20
11	4	7	18	8	1	5	15	16	3	1	3	16	15	10	10	15	8	16	5	4	6	8	11	7	4	16	7	19	4	19	4	20	20	13	8	17	13	7	11	8	3	17	18	12	5	10	8	19	11
17	16	14	20	12	5	14	9	18	18	2	12	13	16	17	20	8	1	18	19	17	16	10	11	8	19	1	17	4	5	12	3	1	6	18	15	17	18	8	20	19	9	9	19	9	2	3	16	6	8
